\ Model chebknap
\ LP format - for model browsing. Use MPS format to capture full model detail.
Minimize
  0 f[0] + 0 f[1] + 0 El[2] + 0 El[3] + 0 El[4] + 0 El[5] + 0 El[6]
   + 0 El[7] + 0 El[8] + 0 El[9] + 0 El[10] + 0 El[11] + 0 El[12]
   + 0 El[13] + 0 El[14] + 0 El[15] + 0 El[16] + 0 El[17] + 0 El[18]
   + 0 El[19] + 0 El[20] + 0 El[21] + 0 El[22] + 0 El[23] + 0 El[24]
   + 0 El[25] + 0 El[26]
Subject To
Bounds
Binaries
 El[2] El[3] El[4] El[5] El[6] El[7] El[8] El[9] El[10] El[11] El[12]
 El[13] El[14] El[15] El[16] El[17] El[18] El[19] El[20] El[21] El[22]
 El[23] El[24] El[25] El[26]
End
